CPXPARAM_Read_DataCheck                          1
Found incumbent of value 0.000000 after 0.00 sec. (1.31 ticks)
Tried aggregator 1 time.
MIP Presolve modified 1 coefficients.
Reduced MIP has 10017 rows, 50005 columns, and 250017 nonzeros.
Reduced MIP has 50005 binaries, 0 generals, 0 SOSs, and 0 indicators.
Presolve time = 0.13 sec. (146.20 ticks)
Probing time = 0.09 sec. (33.20 ticks)
Tried aggregator 1 time.
Reduced MIP has 10017 rows, 50005 columns, and 250017 nonzeros.
Reduced MIP has 50005 binaries, 0 generals, 0 SOSs, and 0 indicators.
Presolve time = 0.17 sec. (167.11 ticks)
Probing time = 0.06 sec. (29.41 ticks)
Clique table members: 160064.
MIP emphasis: balance optimality and feasibility.
MIP search method: dynamic search.
Parallel mode: deterministic, using up to 4 threads.
Root relaxation solution time = 0.72 sec. (806.37 ticks)

        Nodes                                         Cuts/
   Node  Left     Objective  IInf  Best Integer    Best Bound    ItCnt     Gap

*     0+    0                            0.0000   309040.0000              --- 
*     0+    0                        37921.0000   309040.0000           714.96%
      0     0   108385.3840     5    37921.0000   108385.3840       12  185.82%
*     0+    0                        73702.0000   108385.3840            47.06%
      0     0   100564.9286    28    73702.0000    Cuts: 2604      839   25.47%
*     0+    0                        79208.0000    92477.5596            16.75%
      0     0        cutoff          79208.0000    79208.0000     5324    0.00%
Elapsed time = 36.70 sec. (20512.53 ticks, tree = 0.01 MB, solutions = 4)

Clique cuts applied:  3653
Implied bound cuts applied:  2
Mixed integer rounding cuts applied:  3
Gomory fractional cuts applied:  4

Root node processing (before b&c):
  Real time             =   36.70 sec. (20516.54 ticks)
Parallel b&c, 4 threads:
  Real time             =    0.00 sec. (0.00 ticks)
  Sync time (average)   =    0.00 sec.
  Wait time (average)   =    0.00 sec.
                          ------------
Total (root+branch&cut) =   36.70 sec. (20516.54 ticks)
